10	5
0	3	1	3	2
1	2	6	4
2	1	7
3	1	10
4	1	5
5	1	9
6	1	5
7	2	4	8
8	1	6
9	1	10
10	1	11
11	0
0	0	0	0	0	0	0
1	10	5	4	1	4	4
2	8	5	4	4	2	1
3	4	1	5	1	1	1
4	9	3	5	1	1	4
5	10	5	2	5	1	1
6	1	3	1	1	4	2
7	7	5	1	1	5	5
8	1	2	5	5	4	3
9	4	2	3	4	4	5
10	9	1	3	1	1	2
11	0	0	0	0	0	0
5	6	5	5	5
